SAT
1 -2 -3 -73 -79 4 -5 -6 -46 -106 7 -8 -9 -85 -94 10 -11 -12 -22 -97 13 -14 -15 -67 16 -17 -18 -19 -88 20 -21 -35 23 -24 -41 25 -26 -27 -100 28 -29 -30 -49 31 -32 -33 -52 34 -36 37 -38 -39 -43 -58 40 -42 44 -45 -53 54 47 -48 50 -51 -77 55 -56 -57 -64 -82 59 -60 -116 61 -62 -63 65 -66 68 -69 -119 70 -71 -72 -76 78 -91 74 -75 80 -81 83 -84 -104 86 -87 89 -90 92 -93 -113 95 -96 98 -99 101 -102 103 -105 -112 114 107 -108 109 -110 -111 115 -117 118 -120 0